Minimize
  - 28 y_0 - 33 y_1 - 13 y_2 - 20 y_3 - 28 y_4 - 11 y_5 - 30 y_7 - 18 y_8
   - 17 y_9 - 21 y_10 - 13 y_11 - 21 y_12 - 17 y_13 - 12 y_14 - 41 y_15
   - 19 y_16 - 13 y_17 - 15 y_18 - 24 y_19 + 84 x_0_1 + 94 x_0_3 + 76 x_0_4
   + 65 x_0_5 + 57 x_0_6 + 83 x_0_7 + 21 x_0_8 + 88 x_0_10 + 72 x_0_11
   + 68 x_0_12 + 29 x_0_13 + 77 x_0_14 + 29 x_0_15 + 43 x_0_18 + 48 x_0_19
   + 64 x_1_3 + 10 x_1_4 + 88 x_1_5 + 66 x_1_6 + 65 x_1_9 + 44 x_1_10
   + 82 x_1_13 + 81 x_1_14 + 89 x_1_15 + 83 x_1_16 + 72 x_1_17 + 90 x_1_18
   + 107 x_1_19 + 56 x_2_3 + 81 x_2_4 + 26 x_2_6 + 86 x_2_7 + 49 x_2_9
   + 64 x_2_10 + 33 x_2_13 + 25 x_2_14 + 90 x_2_15 + 34 x_2_17 + 20 x_2_18
   + 94 x_3_0 + 56 x_3_4 + 57 x_3_7 + 73 x_3_8 + 20 x_3_10 + 46 x_3_11
   + 47 x_3_12 + 73 x_3_13 + 31 x_3_14 + 77 x_3_16 + 65 x_3_17 + 84 x_3_19
   + 78 x_4_5 + 7 x_4_7 + 63 x_4_8 + 79 x_4_11 + 73 x_4_13 + 71 x_4_14
   + 84 x_4_15 + 74 x_4_16 + 63 x_4_17 + 80 x_4_18 + 97 x_4_19 + 23 x_5_6
   + 83 x_5_7 + 46 x_5_8 + 43 x_5_9 + 59 x_5_10 + 37 x_5_13 + 19 x_5_14
   + 93 x_5_15 + 42 x_5_16 + 25 x_5_18 + 37 x_5_19 + 61 x_6_7 + 35 x_6_8
   + 33 x_6_9 + 25 x_6_11 + 41 x_6_12 + 33 x_6_13 + 38 x_6_16 + 48 x_6_19
   + 70 x_7_8 + 38 x_7_10 + 79 x_7_13 + 75 x_7_14 + 69 x_7_17 + 86 x_7_18
   + 103 x_7_19 + 68 x_8_9 + 69 x_8_10 + 52 x_8_11 + 14 x_8_13 + 57 x_8_14
   + 23 x_9_10 + 66 x_9_13 + 25 x_9_14 + 111 x_9_15 + 71 x_9_16 + 59 x_9_17
   + 62 x_9_18 + 78 x_9_19 + 30 x_10_12 + 72 x_10_13 + 44 x_10_14
   + 75 x_10_16 + 72 x_10_18 + 89 x_10_19 + 43 x_11_13 + 99 x_11_15
   + 42 x_11_17 + 32 x_11_18 + 43 x_11_19 + 60 x_12_13 + 58 x_12_14
   + 80 x_12_15 + 62 x_12_16 + 50 x_12_17 + 84 x_12_19 + 51 x_13_14
   + 57 x_13_15 + 15 x_13_18 + 26 x_13_19 + 104 x_14_15 + 56 x_14_16
   + 46 x_14_17 + 42 x_14_18 + 55 x_14_19 + 52 x_15_16 + 72 x_15_18
   + 13 x_16_17 + 29 x_16_19 + 35 x_17_19 + 18 x_18_19 + 394 Constant
Subject To
 c_0: y_6 = 1
 c_1_0: y_0 >= 1
 c_1_1: y_1 >= 1
 c_1_2: y_2 >= 1
 c_1_3: y_3 >= 1
 c_1_4: y_4 >= 1
 c_1_5: y_5 >= 1
 c_1_6: y_6 >= 1
 c_1_7: y_7 >= 1
 c_1_8: y_8 >= 1
 c_1_9: y_9 >= 1
 c_1_10: y_10 >= 1
 c_1_11: y_11 >= 1
 c_1_12: y_12 >= 1
 c_1_13: y_13 + y_16 >= 1
 c_1_14: y_14 >= 1
 c_1_15: y_15 >= 1
 c_1_16: y_13 + y_16 >= 1
 c_1_17: y_17 >= 1
 c_1_18: y_18 >= 1
 c_1_19: y_19 >= 1
 c_2_0: - 2 y_0 + x_0_1 + x_0_4 + x_0_5 + x_0_6 + x_0_7 + x_0_8 + x_0_10
   + x_0_11 + x_0_12 + x_0_13 + x_0_14 + x_0_15 + x_0_18 + x_0_19 + 2 x_3_0
   = 0
 c_2_1: - 2 y_1 + x_0_1 + x_1_3 + x_1_4 + x_1_5 + x_1_6 + x_1_9 + x_1_10
   + x_1_13 + x_1_14 + x_1_15 + x_1_16 + x_1_17 + x_1_18 + x_1_19 = 0
 c_2_2: - 2 y_2 + x_2_3 + x_2_4 + x_2_6 + x_2_7 + x_2_9 + x_2_10 + x_2_13
   + x_2_14 + x_2_15 + x_2_17 + x_2_18 = 0
 c_2_3: - 2 y_3 + x_1_3 + x_2_3 + 2 x_3_0 + x_3_4 + x_3_7 + x_3_8 + x_3_10
   + x_3_11 + x_3_12 + x_3_13 + x_3_14 + x_3_16 + x_3_17 + x_3_19 = 0
 c_2_4: - 2 y_4 + x_0_4 + x_1_4 + x_2_4 + x_3_4 + x_4_5 + x_4_7 + x_4_8
   + x_4_11 + x_4_13 + x_4_14 + x_4_15 + x_4_16 + x_4_17 + x_4_18 + x_4_19
   = 0
 c_2_5: - 2 y_5 + x_0_5 + x_1_5 + x_4_5 + x_5_6 + x_5_7 + x_5_8 + x_5_9
   + x_5_10 + x_5_13 + x_5_14 + x_5_15 + x_5_16 + x_5_18 + x_5_19 = 0
 c_2_6: - 2 y_6 + x_0_6 + x_1_6 + x_2_6 + x_5_6 + x_6_7 + x_6_8 + x_6_9
   + x_6_11 + x_6_12 + x_6_13 + x_6_16 + x_6_19 = 0
 c_2_7: - 2 y_7 + x_0_7 + x_2_7 + x_3_7 + x_4_7 + x_5_7 + x_6_7 + x_7_8
   + x_7_10 + x_7_13 + x_7_14 + x_7_17 + x_7_18 + x_7_19 = 0
 c_2_8: - 2 y_8 + x_0_8 + x_3_8 + x_4_8 + x_5_8 + x_6_8 + x_7_8 + x_8_9
   + x_8_10 + x_8_11 + x_8_13 + x_8_14 = 0
 c_2_9: - 2 y_9 + x_1_9 + x_2_9 + x_5_9 + x_6_9 + x_8_9 + x_9_10 + x_9_13
   + x_9_14 + x_9_15 + x_9_16 + x_9_17 + x_9_18 + x_9_19 = 0
 c_2_10: - 2 y_10 + x_0_10 + x_1_10 + x_2_10 + x_3_10 + x_5_10 + x_7_10
   + x_8_10 + x_9_10 + x_10_12 + x_10_13 + x_10_14 + x_10_16 + x_10_18
   + x_10_19 = 0
 c_2_11: - 2 y_11 + x_0_11 + x_3_11 + x_4_11 + x_6_11 + x_8_11 + x_11_13
   + x_11_15 + x_11_17 + x_11_18 + x_11_19 = 0
 c_2_12: - 2 y_12 + x_0_12 + x_3_12 + x_6_12 + x_10_12 + x_12_13 + x_12_14
   + x_12_15 + x_12_16 + x_12_17 + x_12_19 = 0
 c_2_13: - 2 y_13 + x_0_13 + x_1_13 + x_2_13 + x_3_13 + x_4_13 + x_5_13
   + x_6_13 + x_7_13 + x_8_13 + x_9_13 + x_10_13 + x_11_13 + x_12_13
   + x_13_14 + x_13_15 + x_13_18 + x_13_19 = 0
 c_2_14: - 2 y_14 + x_0_14 + x_1_14 + x_2_14 + x_3_14 + x_4_14 + x_5_14
   + x_7_14 + x_8_14 + x_9_14 + x_10_14 + x_12_14 + x_13_14 + x_14_15
   + x_14_16 + x_14_17 + x_14_18 + x_14_19 = 0
 c_2_15: - 2 y_15 + x_0_15 + x_1_15 + x_2_15 + x_4_15 + x_5_15 + x_9_15
   + x_11_15 + x_12_15 + x_13_15 + x_14_15 + x_15_16 + x_15_18 = 0
 c_2_16: - 2 y_16 + x_1_16 + x_3_16 + x_4_16 + x_5_16 + x_6_16 + x_9_16
   + x_10_16 + x_12_16 + x_14_16 + x_15_16 + x_16_17 + x_16_19 = 0
 c_2_17: - 2 y_17 + x_1_17 + x_2_17 + x_3_17 + x_4_17 + x_7_17 + x_9_17
   + x_11_17 + x_12_17 + x_14_17 + x_16_17 + x_17_19 = 0
 c_2_18: - 2 y_18 + x_0_18 + x_1_18 + x_2_18 + x_4_18 + x_5_18 + x_7_18
   + x_9_18 + x_10_18 + x_11_18 + x_13_18 + x_14_18 + x_15_18 + x_18_19
   = 0
 c_2_19: - 2 y_19 + x_0_19 + x_1_19 + x_3_19 + x_4_19 + x_5_19 + x_6_19
   + x_7_19 + x_9_19 + x_10_19 + x_11_19 + x_12_19 + x_13_19 + x_14_19
   + x_16_19 + x_17_19 + x_18_19 = 0
Bounds
 Constant = 1
Binaries
 y_0 y_1 y_2 y_3 y_4 y_5 y_6 y_7 y_8 y_9 y_10 y_11 y_12 y_13 y_14 y_15 y_16
 y_17 y_18 y_19 x_0_1 x_0_3 x_0_4 x_0_5 x_0_6 x_0_7 x_0_8 x_0_10 x_0_11
 x_0_12 x_0_13 x_0_14 x_0_15 x_0_18 x_0_19 x_1_3 x_1_4 x_1_5 x_1_6 x_1_9
 x_1_10 x_1_13 x_1_14 x_1_15 x_1_16 x_1_17 x_1_18 x_1_19 x_2_3 x_2_4 x_2_6
 x_2_7 x_2_9 x_2_10 x_2_13 x_2_14 x_2_15 x_2_17 x_2_18 x_3_0 x_3_4 x_3_7
 x_3_8 x_3_10 x_3_11 x_3_12 x_3_13 x_3_14 x_3_16 x_3_17 x_3_19 x_4_5 x_4_7
 x_4_8 x_4_11 x_4_13 x_4_14 x_4_15 x_4_16 x_4_17 x_4_18 x_4_19 x_5_6 x_5_7
 x_5_8 x_5_9 x_5_10 x_5_13 x_5_14 x_5_15 x_5_16 x_5_18 x_5_19 x_6_7 x_6_8
 x_6_9 x_6_11 x_6_12 x_6_13 x_6_16 x_6_19 x_7_8 x_7_10 x_7_13 x_7_14 x_7_17
 x_7_18 x_7_19 x_8_9 x_8_10 x_8_11 x_8_13 x_8_14 x_9_10 x_9_13 x_9_14
 x_9_15 x_9_16 x_9_17 x_9_18 x_9_19 x_10_12 x_10_13 x_10_14 x_10_16 x_10_18
 x_10_19 x_11_13 x_11_15 x_11_17 x_11_18 x_11_19 x_12_13 x_12_14 x_12_15
 x_12_16 x_12_17 x_12_19 x_13_14 x_13_15 x_13_18 x_13_19 x_14_15 x_14_16
 x_14_17 x_14_18 x_14_19 x_15_16 x_15_18 x_16_17 x_16_19 x_17_19 x_18_19
End
